dis_win_min = -3.85
dis_win_max = 16.15
dis_froz_min = 1.15
dis_froz_max = 11.15
kmesh_tol = 1e-06
num_bands = 32
num_wann = 14
num_iter = 300
search_shells = 24
guiding_centres = true
write_xyz = true
write_hr = true

begin projections
c=1.9049923130976718,1.9049923130976718,1.9049923130976718: l=2, mr=1 		# Mn1|dz2|None|None
c=1.9049923130976718,1.9049923130976718,1.9049923130976718: l=2, mr=2 		# Mn1|dxz|None|None
c=1.9049923130976718,1.9049923130976718,1.9049923130976718: l=2, mr=3 		# Mn1|dyz|None|None
c=1.9049923130976718,1.9049923130976718,1.9049923130976718: l=2, mr=4 		# Mn1|dx2-y2|None|None
c=1.9049923130976718,1.9049923130976718,1.9049923130976718: l=2, mr=5 		# Mn1|dxy|None|None
c=1.9049923130976718,1.9049923130976718,0.0: l=1, mr=1 		# O1|pz|None|None
c=1.9049923130976718,1.9049923130976718,0.0: l=1, mr=2 		# O1|px|None|None
c=1.9049923130976718,1.9049923130976718,0.0: l=1, mr=3 		# O1|py|None|None
c=0.0,1.9049923130976718,1.9049923130976718: l=1, mr=1 		# O2|pz|None|None
c=0.0,1.9049923130976718,1.9049923130976718: l=1, mr=2 		# O2|px|None|None
c=0.0,1.9049923130976718,1.9049923130976718: l=1, mr=3 		# O2|py|None|None
c=1.9049923130976718,0.0,1.9049923130976718: l=1, mr=1 		# O3|pz|None|None
c=1.9049923130976718,0.0,1.9049923130976718: l=1, mr=2 		# O3|px|None|None
c=1.9049923130976718,0.0,1.9049923130976718: l=1, mr=3 		# O3|py|None|None
end projections

begin unit_cell_cart
	3.8099846261953436	-0.0	-0.0
	0.0	3.8099846261953436	0.0
	0.0	0.0	3.8099846261953436
end unit_cell_cart


begin atoms_cart
Sr	0.0	0.0	0.0
Mn	1.9049923130976718	1.9049923130976718	1.9049923130976718
O	1.9049923130976718	1.9049923130976718	0.0
O	0.0	1.9049923130976718	1.9049923130976718
O	1.9049923130976718	0.0	1.9049923130976718
end atoms_cart

mp_grid = 	4	4	4
begin kpoints
 0.0  0.0  0.0
0.25  0.0  0.0
0.5  0.0  0.0
-0.25  0.0  0.0
0.0  0.25  0.0
0.25  0.25  0.0
0.5  0.25  0.0
-0.25  0.25  0.0
0.0  0.5  0.0
0.25  0.5  0.0
0.5  0.5  0.0
-0.25  0.5  0.0
0.0  -0.25  0.0
0.25  -0.25  0.0
0.5  -0.25  0.0
-0.25  -0.25  0.0
0.0  0.0  0.25
0.25  0.0  0.25
0.5  0.0  0.25
-0.25  0.0  0.25
0.0  0.25  0.25
0.25  0.25  0.25
0.5  0.25  0.25
-0.25  0.25  0.25
0.0  0.5  0.25
0.25  0.5  0.25
0.5  0.5  0.25
-0.25  0.5  0.25
0.0  -0.25  0.25
0.25  -0.25  0.25
0.5  -0.25  0.25
-0.25  -0.25  0.25
0.0  0.0  0.5
0.25  0.0  0.5
0.5  0.0  0.5
-0.25  0.0  0.5
0.0  0.25  0.5
0.25  0.25  0.5
0.5  0.25  0.5
-0.25  0.25  0.5
0.0  0.5  0.5
0.25  0.5  0.5
0.5  0.5  0.5
-0.25  0.5  0.5
0.0  -0.25  0.5
0.25  -0.25  0.5
0.5  -0.25  0.5
-0.25  -0.25  0.5
0.0  0.0  -0.25
0.25  0.0  -0.25
0.5  0.0  -0.25
-0.25  0.0  -0.25
0.0  0.25  -0.25
0.25  0.25  -0.25
0.5  0.25  -0.25
-0.25  0.25  -0.25
0.0  0.5  -0.25
0.25  0.5  -0.25
0.5  0.5  -0.25
-0.25  0.5  -0.25
0.0  -0.25  -0.25
0.25  -0.25  -0.25
0.5  -0.25  -0.25
-0.25  -0.25  -0.25
end kpoints

