SystemName	siesta
SystemLabel	siesta

CDF.Compress	9
CDF.Save	True
MaxSCFIteration	60
SCF.DM.Tolerance	0.0001
SCF.EDM.Tolerance	1e-2 eV
SCF.H.Tolerance	1e-3 eV
SCF.Mixer.History	16
SCF.Mixer.Method	Pulay
SCF.Mixer.Spin	spinor
SCF.Mixer.Weight	0.4
SaveHS	True
Write.DMHS.Netcdf	True
SCFMustConverge	True

Spin     	COLLINEAR
XC.functional	GGA
XC.authors	PBE

MeshCutoff	2721.1386024367243	eV
PAO.EnergyShift	0.1	eV

NumberOfSpecies	1
NumberOfAtoms	1
%block ChemicalSpecieslabel
    1 26 Fe.1
%endblock ChemicalSpecieslabel

%block PAO.BasisSizes
    Fe.1	DZP
%endblock PAO.BasisSizes


LatticeConstant	1.0 Ang
%block LatticeVectors
    2.466540770000000     0.000000000000000     0.000000000000000 
    -0.822180256484402     2.325476939451225     0.000000000000000 
    -0.822180256484402     -1.162738469338971     2.013922105702875 
%endblock LatticeVectors


AtomicCoordinatesFormat  Ang
%block AtomicCoordinatesAndAtomicSpecies
     0.000000000      0.000000000      0.000000000 1
%endblock AtomicCoordinatesAndAtomicSpecies

%block DM.InitSpin
    1 3.00000000000000
%endblock DM.InitSpin

DM.UseSaveDM	True

#KPoint grid
%block kgrid_Monkhorst_Pack
     7       0       0  0.0
     0       7       0  0.0
     0       0       7  0.0
%endblock kgrid_Monkhorst_Pack

