SystemName	siesta
SystemLabel	siesta

CDF.Compress	9
CDF.Save	True
MaxSCFIteration	60
SCF.DM.Tolerance	0.0001
SCF.EDM.Tolerance	1e-2 eV
SCF.H.Tolerance	1e-3 eV
SCF.Mixer.History	16
SCF.Mixer.Method	Pulay
SCF.Mixer.Spin	spinor
SCF.Mixer.Weight	0.4
SCF.Spin.Fix	True
SaveHS	True
SCFMustConverge	True

Spin     	spin-orbit
XC.functional	GGA
XC.authors	PBE

MeshCutoff	2721.1386024367243	eV
PAO.EnergyShift	0.1	eV

NumberOfSpecies	1
NumberOfAtoms	2
%block ChemicalSpecieslabel
    1 27 Co.1
%endblock ChemicalSpecieslabel

%block PAO.BasisSizes
    Co.1	DZP
%endblock PAO.BasisSizes


LatticeConstant	1.0 Ang
%block LatticeVectors
    2.491505370342905     -0.003179254876068     0.000000000000000 
    -1.248506001341909     2.156117846545347     -0.000000000000000 
    0.000000000000000     -0.000000000000000     4.029727331852073 
%endblock LatticeVectors


AtomicCoordinatesFormat  Ang
%block AtomicCoordinatesAndAtomicSpecies
    -0.000836015      0.000483699      0.000000000 1
    -0.000999588      1.435868527      2.014863666 1
%endblock AtomicCoordinatesAndAtomicSpecies

%block DM.InitSpin
    1 3.00000000000000
    2 3.00000000000000
%endblock DM.InitSpin

DM.UseSaveDM	True

#KPoint grid
%block kgrid_Monkhorst_Pack
     7       0       0  0.0
     0       7       0  0.0
     0       0       7  0.0
%endblock kgrid_Monkhorst_Pack

